NAME : L84
COMMENT : 36919.24
TYPE : CVRP
DIMENSION : 1201
MAXVEHICLES : 8
EDGE_WEIGHT_TYPE : EUC_2D
CAPACITY : 1000
DISTANCE : 2000
SERVICE_TIME : 10
TOTALPROFITS : 24299
NODE_COORD_SECTION
1 0.0000 0.0000
2 30.0000 0.0000
3 29.6307 4.6930
4 28.5317 9.2705
5 26.7302 13.6197
6 24.2705 17.6336
7 21.2132 21.2132
8 17.6336 24.2705
9 13.6197 26.7302
10 9.2705 28.5317
11 4.6930 29.6307
12 0.0000 30.0000
13 -4.6930 29.6307
14 -9.2705 28.5317
15 -13.6197 26.7302
16 -17.6336 24.2705
17 -21.2132 21.2132
18 -24.2705 17.6336
19 -26.7302 13.6197
20 -28.5317 9.2705
21 -29.6307 4.6930
22 -30.0000 0.0000
23 -29.6307 -4.6930
24 -28.5317 -9.2705
25 -26.7302 -13.6197
26 -24.2705 -17.6336
27 -21.2132 -21.2132
28 -17.6336 -24.2705
29 -13.6197 -26.7302
30 -9.2705 -28.5317
31 -4.6930 -29.6307
32 -0.0000 -30.0000
33 4.6930 -29.6307
34 9.2705 -28.5317
35 13.6197 -26.7302
36 17.6336 -24.2705
37 21.2132 -21.2132
38 24.2705 -17.6336
39 26.7302 -13.6197
40 28.5317 -9.2705
41 29.6307 -4.6930
42 60.0000 0.0000
43 59.2613 9.3861
44 57.0634 18.5410
45 53.4604 27.2394
46 48.5410 35.2671
47 42.4264 42.4264
48 35.2671 48.5410
49 27.2394 53.4604
50 18.5410 57.0634
51 9.3861 59.2613
52 0.0000 60.0000
53 -9.3861 59.2613
54 -18.5410 57.0634
55 -27.2394 53.4604
56 -35.2671 48.5410
57 -42.4264 42.4264
58 -48.5410 35.2671
59 -53.4604 27.2394
60 -57.0634 18.5410
61 -59.2613 9.3861
62 -60.0000 0.0000
63 -59.2613 -9.3861
64 -57.0634 -18.5410
65 -53.4604 -27.2394
66 -48.5410 -35.2671
67 -42.4264 -42.4264
68 -35.2671 -48.5410
69 -27.2394 -53.4604
70 -18.5410 -57.0634
71 -9.3861 -59.2613
72 -0.0000 -60.0000
73 9.3861 -59.2613
74 18.5410 -57.0634
75 27.2394 -53.4604
76 35.2671 -48.5410
77 42.4264 -42.4264
78 48.5410 -35.2671
79 53.4604 -27.2394
80 57.0634 -18.5410
81 59.2613 -9.3861
82 90.0000 0.0000
83 88.8920 14.0791
84 85.5951 27.8115
85 80.1906 40.8591
86 72.8115 52.9007
87 63.6396 63.6396
88 52.9007 72.8115
89 40.8591 80.1906
90 27.8115 85.5951
91 14.0791 88.8920
92 0.0000 90.0000
93 -14.0791 88.8920
94 -27.8115 85.5951
95 -40.8591 80.1906
96 -52.9007 72.8115
97 -63.6396 63.6396
98 -72.8115 52.9007
99 -80.1906 40.8591
100 -85.5951 27.8115
101 -88.8920 14.0791
102 -90.0000 0.0000
103 -88.8920 -14.0791
104 -85.5951 -27.8115
105 -80.1906 -40.8591
106 -72.8115 -52.9007
107 -63.6396 -63.6396
108 -52.9007 -72.8115
109 -40.8591 -80.1906
110 -27.8115 -85.5951
111 -14.0791 -88.8920
112 -0.0000 -90.0000
113 14.0791 -88.8920
114 27.8115 -85.5951
115 40.8591 -80.1906
116 52.9007 -72.8115
117 63.6396 -63.6396
118 72.8115 -52.9007
119 80.1906 -40.8591
120 85.5951 -27.8115
121 88.8920 -14.0791
122 120.0000 0.0000
123 118.5226 18.7721
124 114.1268 37.0820
125 106.9208 54.4789
126 97.0820 70.5342
127 84.8528 84.8528
128 70.5342 97.0820
129 54.4789 106.9208
130 37.0820 114.1268
131 18.7721 118.5226
132 0.0000 120.0000
133 -18.7721 118.5226
134 -37.0820 114.1268
135 -54.4789 106.9208
136 -70.5342 97.0820
137 -84.8528 84.8528
138 -97.0820 70.5342
139 -106.9208 54.4789
140 -114.1268 37.0820
141 -118.5226 18.7721
142 -120.0000 0.0000
143 -118.5226 -18.7721
144 -114.1268 -37.0820
145 -106.9208 -54.4789
146 -97.0820 -70.5342
147 -84.8528 -84.8528
148 -70.5342 -97.0820
149 -54.4789 -106.9208
150 -37.0820 -114.1268
151 -18.7721 -118.5226
152 -0.0000 -120.0000
153 18.7721 -118.5226
154 37.0820 -114.1268
155 54.4789 -106.9208
156 70.5342 -97.0820
157 84.8528 -84.8528
158 97.0820 -70.5342
159 106.9208 -54.4789
160 114.1268 -37.0820
161 118.5226 -18.7721
162 150.0000 0.0000
163 148.1533 23.4652
164 142.6585 46.3525
165 133.6510 68.0986
166 121.3525 88.1678
167 106.0660 106.0660
168 88.1678 121.3525
169 68.0986 133.6510
170 46.3525 142.6585
171 23.4652 148.1533
172 0.0000 150.0000
173 -23.4652 148.1533
174 -46.3525 142.6585
175 -68.0986 133.6510
176 -88.1678 121.3525
177 -106.0660 106.0660
178 -121.3525 88.1678
179 -133.6510 68.0986
180 -142.6585 46.3525
181 -148.1533 23.4652
182 -150.0000 0.0000
183 -148.1533 -23.4652
184 -142.6585 -46.3525
185 -133.6510 -68.0986
186 -121.3525 -88.1678
187 -106.0660 -106.0660
188 -88.1678 -121.3525
189 -68.0986 -133.6510
190 -46.3525 -142.6585
191 -23.4652 -148.1533
192 -0.0000 -150.0000
193 23.4652 -148.1533
194 46.3525 -142.6585
195 68.0986 -133.6510
196 88.1678 -121.3525
197 106.0660 -106.0660
198 121.3525 -88.1678
199 133.6510 -68.0986
200 142.6585 -46.3525
201 148.1533 -23.4652
202 180.0000 0.0000
203 177.7839 28.1582
204 171.1902 55.6231
205 160.3812 81.7183
206 145.6231 105.8013
207 127.2792 127.2792
208 105.8013 145.6231
209 81.7183 160.3812
210 55.6231 171.1902
211 28.1582 177.7839
212 0.0000 180.0000
213 -28.1582 177.7839
214 -55.6231 171.1902
215 -81.7183 160.3812
216 -105.8013 145.6231
217 -127.2792 127.2792
218 -145.6231 105.8013
219 -160.3812 81.7183
220 -171.1902 55.6231
221 -177.7839 28.1582
222 -180.0000 0.0000
223 -177.7839 -28.1582
224 -171.1902 -55.6231
225 -160.3812 -81.7183
226 -145.6231 -105.8013
227 -127.2792 -127.2792
228 -105.8013 -145.6231
229 -81.7183 -160.3812
230 -55.6231 -171.1902
231 -28.1582 -177.7839
232 -0.0000 -180.0000
233 28.1582 -177.7839
234 55.6231 -171.1902
235 81.7183 -160.3812
236 105.8013 -145.6231
237 127.2792 -127.2792
238 145.6231 -105.8013
239 160.3812 -81.7183
240 171.1902 -55.6231
241 177.7839 -28.1582
242 210.0000 0.0000
243 207.4146 32.8512
244 199.7219 64.8936
245 187.1114 95.3380
246 169.8936 123.4349
247 148.4924 148.4924
248 123.4349 169.8936
249 95.3380 187.1114
250 64.8936 199.7219
251 32.8512 207.4146
252 0.0000 210.0000
253 -32.8512 207.4146
254 -64.8936 199.7219
255 -95.3380 187.1114
256 -123.4349 169.8936
257 -148.4924 148.4924
258 -169.8936 123.4349
259 -187.1114 95.3380
260 -199.7219 64.8936
261 -207.4146 32.8512
262 -210.0000 0.0000
263 -207.4146 -32.8512
264 -199.7219 -64.8936
265 -187.1114 -95.3380
266 -169.8936 -123.4349
267 -148.4924 -148.4924
268 -123.4349 -169.8936
269 -95.3380 -187.1114
270 -64.8936 -199.7219
271 -32.8512 -207.4146
272 -0.0000 -210.0000
273 32.8512 -207.4146
274 64.8936 -199.7219
275 95.3380 -187.1114
276 123.4349 -169.8936
277 148.4924 -148.4924
278 169.8936 -123.4349
279 187.1114 -95.3380
280 199.7219 -64.8936
281 207.4146 -32.8512
282 240.0000 0.0000
283 237.0452 37.5443
284 228.2536 74.1641
285 213.8416 108.9577
286 194.1641 141.0685
287 169.7056 169.7056
288 141.0685 194.1641
289 108.9577 213.8416
290 74.1641 228.2536
291 37.5443 237.0452
292 0.0000 240.0000
293 -37.5443 237.0452
294 -74.1641 228.2536
295 -108.9577 213.8416
296 -141.0685 194.1641
297 -169.7056 169.7056
298 -194.1641 141.0685
299 -213.8416 108.9577
300 -228.2536 74.1641
301 -237.0452 37.5443
302 -240.0000 0.0000
303 -237.0452 -37.5443
304 -228.2536 -74.1641
305 -213.8416 -108.9577
306 -194.1641 -141.0685
307 -169.7056 -169.7056
308 -141.0685 -194.1641
309 -108.9577 -213.8416
310 -74.1641 -228.2536
311 -37.5443 -237.0452
312 -0.0000 -240.0000
313 37.5443 -237.0452
314 74.1641 -228.2536
315 108.9577 -213.8416
316 141.0685 -194.1641
317 169.7056 -169.7056
318 194.1641 -141.0685
319 213.8416 -108.9577
320 228.2536 -74.1641
321 237.0452 -37.5443
322 270.0000 0.0000
323 266.6759 42.2373
324 256.7853 83.4346
325 240.5718 122.5774
326 218.4346 158.7020
327 190.9188 190.9188
328 158.7020 218.4346
329 122.5774 240.5718
330 83.4346 256.7853
331 42.2373 266.6759
332 0.0000 270.0000
333 -42.2373 266.6759
334 -83.4346 256.7853
335 -122.5774 240.5718
336 -158.7020 218.4346
337 -190.9188 190.9188
338 -218.4346 158.7020
339 -240.5718 122.5774
340 -256.7853 83.4346
341 -266.6759 42.2373
342 -270.0000 0.0000
343 -266.6759 -42.2373
344 -256.7853 -83.4346
345 -240.5718 -122.5774
346 -218.4346 -158.7020
347 -190.9188 -190.9188
348 -158.7020 -218.4346
349 -122.5774 -240.5718
350 -83.4346 -256.7853
351 -42.2373 -266.6759
352 -0.0000 -270.0000
353 42.2373 -266.6759
354 83.4346 -256.7853
355 122.5774 -240.5718
356 158.7020 -218.4346
357 190.9188 -190.9188
358 218.4346 -158.7020
359 240.5718 -122.5774
360 256.7853 -83.4346
361 266.6759 -42.2373
362 300.0000 0.0000
363 296.3065 46.9303
364 285.3170 92.7051
365 267.3020 136.1971
366 242.7051 176.3356
367 212.1320 212.1320
368 176.3356 242.7051
369 136.1971 267.3020
370 92.7051 285.3170
371 46.9303 296.3065
372 0.0000 300.0000
373 -46.9303 296.3065
374 -92.7051 285.3170
375 -136.1971 267.3020
376 -176.3356 242.7051
377 -212.1320 212.1320
378 -242.7051 176.3356
379 -267.3020 136.1971
380 -285.3170 92.7051
381 -296.3065 46.9303
382 -300.0000 0.0000
383 -296.3065 -46.9303
384 -285.3170 -92.7051
385 -267.3020 -136.1971
386 -242.7051 -176.3356
387 -212.1320 -212.1320
388 -176.3356 -242.7051
389 -136.1971 -267.3020
390 -92.7051 -285.3170
391 -46.9303 -296.3065
392 -0.0000 -300.0000
393 46.9303 -296.3065
394 92.7051 -285.3170
395 136.1971 -267.3020
396 176.3356 -242.7051
397 212.1320 -212.1320
398 242.7051 -176.3356
399 267.3020 -136.1971
400 285.3170 -92.7051
401 296.3065 -46.9303
402 330.0000 0.0000
403 325.9372 51.6234
404 313.8487 101.9756
405 294.0322 149.8169
406 266.9756 193.9691
407 233.3452 233.3452
408 193.9691 266.9756
409 149.8169 294.0322
410 101.9756 313.8487
411 51.6234 325.9372
412 0.0000 330.0000
413 -51.6234 325.9372
414 -101.9756 313.8487
415 -149.8169 294.0322
416 -193.9691 266.9756
417 -233.3452 233.3452
418 -266.9756 193.9691
419 -294.0322 149.8169
420 -313.8487 101.9756
421 -325.9372 51.6234
422 -330.0000 0.0000
423 -325.9372 -51.6234
424 -313.8487 -101.9756
425 -294.0322 -149.8169
426 -266.9756 -193.9691
427 -233.3452 -233.3452
428 -193.9691 -266.9756
429 -149.8169 -294.0322
430 -101.9756 -313.8487
431 -51.6234 -325.9372
432 -0.0000 -330.0000
433 51.6234 -325.9372
434 101.9756 -313.8487
435 149.8169 -294.0322
436 193.9691 -266.9756
437 233.3452 -233.3452
438 266.9756 -193.9691
439 294.0322 -149.8169
440 313.8487 -101.9756
441 325.9372 -51.6234
442 360.0000 0.0000
443 355.5678 56.3164
444 342.3803 111.2461
445 320.7623 163.4366
446 291.2461 211.6027
447 254.5584 254.5584
448 211.6027 291.2461
449 163.4366 320.7623
450 111.2461 342.3803
451 56.3164 355.5678
452 0.0000 360.0000
453 -56.3164 355.5678
454 -111.2461 342.3803
455 -163.4366 320.7623
456 -211.6027 291.2461
457 -254.5584 254.5584
458 -291.2461 211.6027
459 -320.7623 163.4366
460 -342.3803 111.2461
461 -355.5678 56.3164
462 -360.0000 0.0000
463 -355.5678 -56.3164
464 -342.3803 -111.2461
465 -320.7623 -163.4366
466 -291.2461 -211.6027
467 -254.5584 -254.5584
468 -211.6027 -291.2461
469 -163.4366 -320.7623
470 -111.2461 -342.3803
471 -56.3164 -355.5678
472 -0.0000 -360.0000
473 56.3164 -355.5678
474 111.2461 -342.3803
475 163.4366 -320.7623
476 211.6027 -291.2461
477 254.5584 -254.5584
478 291.2461 -211.6027
479 320.7623 -163.4366
480 342.3803 -111.2461
481 355.5678 -56.3164
482 390.0000 0.0000
483 385.1985 61.0094
484 370.9120 120.5166
485 347.4925 177.0563
486 315.5166 229.2362
487 275.7716 275.7716
488 229.2362 315.5166
489 177.0563 347.4925
490 120.5166 370.9120
491 61.0094 385.1985
492 0.0000 390.0000
493 -61.0094 385.1985
494 -120.5166 370.9120
495 -177.0563 347.4925
496 -229.2362 315.5166
497 -275.7716 275.7716
498 -315.5166 229.2362
499 -347.4925 177.0563
500 -370.9120 120.5166
501 -385.1985 61.0094
502 -390.0000 0.0000
503 -385.1985 -61.0094
504 -370.9120 -120.5166
505 -347.4925 -177.0563
506 -315.5166 -229.2362
507 -275.7716 -275.7716
508 -229.2362 -315.5166
509 -177.0563 -347.4925
510 -120.5166 -370.9120
511 -61.0094 -385.1985
512 -0.0000 -390.0000
513 61.0094 -385.1985
514 120.5166 -370.9120
515 177.0563 -347.4925
516 229.2362 -315.5166
517 275.7716 -275.7716
518 315.5166 -229.2362
519 347.4925 -177.0563
520 370.9120 -120.5166
521 385.1985 -61.0094
522 420.0000 0.0000
523 414.8291 65.7025
524 399.4437 129.7871
525 374.2227 190.6760
526 339.7871 246.8698
527 296.9848 296.9848
528 246.8698 339.7871
529 190.6760 374.2227
530 129.7871 399.4437
531 65.7025 414.8291
532 0.0000 420.0000
533 -65.7025 414.8291
534 -129.7871 399.4437
535 -190.6760 374.2227
536 -246.8698 339.7871
537 -296.9848 296.9848
538 -339.7871 246.8698
539 -374.2227 190.6760
540 -399.4437 129.7871
541 -414.8291 65.7025
542 -420.0000 0.0000
543 -414.8291 -65.7025
544 -399.4437 -129.7871
545 -374.2227 -190.6760
546 -339.7871 -246.8698
547 -296.9848 -296.9848
548 -246.8698 -339.7871
549 -190.6760 -374.2227
550 -129.7871 -399.4437
551 -65.7025 -414.8291
552 -0.0000 -420.0000
553 65.7025 -414.8291
554 129.7871 -399.4437
555 190.6760 -374.2227
556 246.8698 -339.7871
557 296.9848 -296.9848
558 339.7871 -246.8698
559 374.2227 -190.6760
560 399.4437 -129.7871
561 414.8291 -65.7025
562 450.0000 0.0000
563 444.4598 70.3955
564 427.9754 139.0576
565 400.9529 204.2957
566 364.0576 264.5034
567 318.1981 318.1981
568 264.5034 364.0576
569 204.2957 400.9529
570 139.0576 427.9754
571 70.3955 444.4598
572 0.0000 450.0000
573 -70.3955 444.4598
574 -139.0576 427.9754
575 -204.2957 400.9529
576 -264.5034 364.0576
577 -318.1981 318.1981
578 -364.0576 264.5034
579 -400.9529 204.2957
580 -427.9754 139.0576
581 -444.4598 70.3955
582 -450.0000 0.0000
583 -444.4598 -70.3955
584 -427.9754 -139.0576
585 -400.9529 -204.2957
586 -364.0576 -264.5034
587 -318.1981 -318.1981
588 -264.5034 -364.0576
589 -204.2957 -400.9529
590 -139.0576 -427.9754
591 -70.3955 -444.4598
592 -0.0000 -450.0000
593 70.3955 -444.4598
594 139.0576 -427.9754
595 204.2957 -400.9529
596 264.5034 -364.0576
597 318.1981 -318.1981
598 364.0576 -264.5034
599 400.9529 -204.2957
600 427.9754 -139.0576
601 444.4598 -70.3955
602 480.0000 0.0000
603 474.0904 75.0885
604 456.5071 148.3282
605 427.6831 217.9154
606 388.3282 282.1369
607 339.4113 339.4113
608 282.1369 388.3282
609 217.9154 427.6831
610 148.3282 456.5071
611 75.0885 474.0904
612 0.0000 480.0000
613 -75.0885 474.0904
614 -148.3282 456.5071
615 -217.9154 427.6831
616 -282.1369 388.3282
617 -339.4113 339.4113
618 -388.3282 282.1369
619 -427.6831 217.9154
620 -456.5071 148.3282
621 -474.0904 75.0885
622 -480.0000 0.0000
623 -474.0904 -75.0885
624 -456.5071 -148.3282
625 -427.6831 -217.9154
626 -388.3282 -282.1369
627 -339.4113 -339.4113
628 -282.1369 -388.3282
629 -217.9154 -427.6831
630 -148.3282 -456.5071
631 -75.0885 -474.0904
632 -0.0000 -480.0000
633 75.0885 -474.0904
634 148.3282 -456.5071
635 217.9154 -427.6831
636 282.1369 -388.3282
637 339.4113 -339.4113
638 388.3282 -282.1369
639 427.6831 -217.9154
640 456.5071 -148.3282
641 474.0904 -75.0885
642 510.0000 0.0000
643 503.7211 79.7816
644 485.0388 157.5987
645 454.4133 231.5352
646 412.5987 299.7705
647 360.6245 360.6245
648 299.7705 412.5987
649 231.5352 454.4133
650 157.5987 485.0388
651 79.7816 503.7211
652 0.0000 510.0000
653 -79.7816 503.7211
654 -157.5987 485.0388
655 -231.5352 454.4133
656 -299.7705 412.5987
657 -360.6245 360.6245
658 -412.5987 299.7705
659 -454.4133 231.5352
660 -485.0388 157.5987
661 -503.7211 79.7816
662 -510.0000 0.0000
663 -503.7211 -79.7816
664 -485.0388 -157.5987
665 -454.4133 -231.5352
666 -412.5987 -299.7705
667 -360.6245 -360.6245
668 -299.7705 -412.5987
669 -231.5352 -454.4133
670 -157.5987 -485.0388
671 -79.7816 -503.7211
672 -0.0000 -510.0000
673 79.7816 -503.7211
674 157.5987 -485.0388
675 231.5352 -454.4133
676 299.7705 -412.5987
677 360.6245 -360.6245
678 412.5987 -299.7705
679 454.4133 -231.5352
680 485.0388 -157.5987
681 503.7211 -79.7816
682 540.0000 0.0000
683 533.3517 84.4746
684 513.5705 166.8692
685 481.1435 245.1549
686 436.8692 317.4040
687 381.8377 381.8377
688 317.4040 436.8692
689 245.1549 481.1435
690 166.8692 513.5705
691 84.4746 533.3517
692 0.0000 540.0000
693 -84.4746 533.3517
694 -166.8692 513.5705
695 -245.1549 481.1435
696 -317.4040 436.8692
697 -381.8377 381.8377
698 -436.8692 317.4040
699 -481.1435 245.1549
700 -513.5705 166.8692
701 -533.3517 84.4746
702 -540.0000 0.0000
703 -533.3517 -84.4746
704 -513.5705 -166.8692
705 -481.1435 -245.1549
706 -436.8692 -317.4040
707 -381.8377 -381.8377
708 -317.4040 -436.8692
709 -245.1549 -481.1435
710 -166.8692 -513.5705
711 -84.4746 -533.3517
712 -0.0000 -540.0000
713 84.4746 -533.3517
714 166.8692 -513.5705
715 245.1549 -481.1435
716 317.4040 -436.8692
717 381.8377 -381.8377
718 436.8692 -317.4040
719 481.1435 -245.1549
720 513.5705 -166.8692
721 533.3517 -84.4746
722 570.0000 0.0000
723 562.9824 89.1676
724 542.1022 176.1397
725 507.8737 258.7746
726 461.1397 335.0376
727 403.0509 403.0509
728 335.0376 461.1397
729 258.7746 507.8737
730 176.1397 542.1022
731 89.1676 562.9824
732 0.0000 570.0000
733 -89.1676 562.9824
734 -176.1397 542.1022
735 -258.7746 507.8737
736 -335.0376 461.1397
737 -403.0509 403.0509
738 -461.1397 335.0376
739 -507.8737 258.7746
740 -542.1022 176.1397
741 -562.9824 89.1676
742 -570.0000 0.0000
743 -562.9824 -89.1676
744 -542.1022 -176.1397
745 -507.8737 -258.7746
746 -461.1397 -335.0376
747 -403.0509 -403.0509
748 -335.0376 -461.1397
749 -258.7746 -507.8737
750 -176.1397 -542.1022
751 -89.1676 -562.9824
752 -0.0000 -570.0000
753 89.1676 -562.9824
754 176.1397 -542.1022
755 258.7746 -507.8737
756 335.0376 -461.1397
757 403.0509 -403.0509
758 461.1397 -335.0376
759 507.8737 -258.7746
760 542.1022 -176.1397
761 562.9824 -89.1676
762 600.0000 0.0000
763 592.6130 93.8607
764 570.6339 185.4102
765 534.6039 272.3943
766 485.4102 352.6712
767 424.2641 424.2641
768 352.6712 485.4102
769 272.3943 534.6039
770 185.4102 570.6339
771 93.8607 592.6130
772 0.0000 600.0000
773 -93.8607 592.6130
774 -185.4102 570.6339
775 -272.3943 534.6039
776 -352.6712 485.4102
777 -424.2641 424.2641
778 -485.4102 352.6712
779 -534.6039 272.3943
780 -570.6339 185.4102
781 -592.6130 93.8607
782 -600.0000 0.0000
783 -592.6130 -93.8607
784 -570.6339 -185.4102
785 -534.6039 -272.3943
786 -485.4102 -352.6712
787 -424.2641 -424.2641
788 -352.6712 -485.4102
789 -272.3943 -534.6039
790 -185.4102 -570.6339
791 -93.8607 -592.6130
792 -0.0000 -600.0000
793 93.8607 -592.6130
794 185.4102 -570.6339
795 272.3943 -534.6039
796 352.6712 -485.4102
797 424.2641 -424.2641
798 485.4102 -352.6712
799 534.6039 -272.3943
800 570.6339 -185.4102
801 592.6130 -93.8607
802 630.0000 0.0000
803 622.2437 98.5537
804 599.1656 194.6807
805 561.3341 286.0140
806 509.6807 370.3047
807 445.4773 445.4773
808 370.3047 509.6807
809 286.0140 561.3341
810 194.6807 599.1656
811 98.5537 622.2437
812 0.0000 630.0000
813 -98.5537 622.2437
814 -194.6807 599.1656
815 -286.0140 561.3341
816 -370.3047 509.6807
817 -445.4773 445.4773
818 -509.6807 370.3047
819 -561.3341 286.0140
820 -599.1656 194.6807
821 -622.2437 98.5537
822 -630.0000 0.0000
823 -622.2437 -98.5537
824 -599.1656 -194.6807
825 -561.3341 -286.0140
826 -509.6807 -370.3047
827 -445.4773 -445.4773
828 -370.3047 -509.6807
829 -286.0140 -561.3341
830 -194.6807 -599.1656
831 -98.5537 -622.2437
832 -0.0000 -630.0000
833 98.5537 -622.2437
834 194.6807 -599.1656
835 286.0140 -561.3341
836 370.3047 -509.6807
837 445.4773 -445.4773
838 509.6807 -370.3047
839 561.3341 -286.0140
840 599.1656 -194.6807
841 622.2437 -98.5537
842 660.0000 0.0000
843 651.8743 103.2467
844 627.6973 203.9512
845 588.0643 299.6337
846 533.9512 387.9383
847 466.6905 466.6905
848 387.9383 533.9512
849 299.6337 588.0643
850 203.9512 627.6973
851 103.2467 651.8743
852 0.0000 660.0000
853 -103.2467 651.8743
854 -203.9512 627.6973
855 -299.6337 588.0643
856 -387.9383 533.9512
857 -466.6905 466.6905
858 -533.9512 387.9383
859 -588.0643 299.6337
860 -627.6973 203.9512
861 -651.8743 103.2467
862 -660.0000 0.0000
863 -651.8743 -103.2467
864 -627.6973 -203.9512
865 -588.0643 -299.6337
866 -533.9512 -387.9383
867 -466.6905 -466.6905
868 -387.9383 -533.9512
869 -299.6337 -588.0643
870 -203.9512 -627.6973
871 -103.2467 -651.8743
872 -0.0000 -660.0000
873 103.2467 -651.8743
874 203.9512 -627.6973
875 299.6337 -588.0643
876 387.9383 -533.9512
877 466.6905 -466.6905
878 533.9512 -387.9383
879 588.0643 -299.6337
880 627.6973 -203.9512
881 651.8743 -103.2467
882 690.0000 0.0000
883 681.5050 107.9398
884 656.2290 213.2217
885 614.7945 313.2534
886 558.2217 405.5718
887 487.9037 487.9037
888 405.5718 558.2217
889 313.2534 614.7945
890 213.2217 656.2290
891 107.9398 681.5050
892 0.0000 690.0000
893 -107.9398 681.5050
894 -213.2217 656.2290
895 -313.2534 614.7945
896 -405.5718 558.2217
897 -487.9037 487.9037
898 -558.2217 405.5718
899 -614.7945 313.2534
900 -656.2290 213.2217
901 -681.5050 107.9398
902 -690.0000 0.0000
903 -681.5050 -107.9398
904 -656.2290 -213.2217
905 -614.7945 -313.2534
906 -558.2217 -405.5718
907 -487.9037 -487.9037
908 -405.5718 -558.2217
909 -313.2534 -614.7945
910 -213.2217 -656.2290
911 -107.9398 -681.5050
912 -0.0000 -690.0000
913 107.9398 -681.5050
914 213.2217 -656.2290
915 313.2534 -614.7945
916 405.5718 -558.2217
917 487.9037 -487.9037
918 558.2217 -405.5718
919 614.7945 -313.2534
920 656.2290 -213.2217
921 681.5050 -107.9398
922 720.0000 0.0000
923 711.1356 112.6328
924 684.7607 222.4922
925 641.5247 326.8732
926 582.4922 423.2054
927 509.1169 509.1169
928 423.2054 582.4922
929 326.8732 641.5247
930 222.4922 684.7607
931 112.6328 711.1356
932 0.0000 720.0000
933 -112.6328 711.1356
934 -222.4922 684.7607
935 -326.8732 641.5247
936 -423.2054 582.4922
937 -509.1169 509.1169
938 -582.4922 423.2054
939 -641.5247 326.8732
940 -684.7607 222.4922
941 -711.1356 112.6328
942 -720.0000 0.0000
943 -711.1356 -112.6328
944 -684.7607 -222.4922
945 -641.5247 -326.8732
946 -582.4922 -423.2054
947 -509.1169 -509.1169
948 -423.2054 -582.4922
949 -326.8732 -641.5247
950 -222.4922 -684.7607
951 -112.6328 -711.1356
952 -0.0000 -720.0000
953 112.6328 -711.1356
954 222.4922 -684.7607
955 326.8732 -641.5247
956 423.2054 -582.4922
957 509.1169 -509.1169
958 582.4922 -423.2054
959 641.5247 -326.8732
960 684.7607 -222.4922
961 711.1356 -112.6328
962 750.0000 0.0000
963 740.7663 117.3258
964 713.2924 231.7627
965 668.2549 340.4929
966 606.7627 440.8389
967 530.3301 530.3301
968 440.8389 606.7627
969 340.4929 668.2549
970 231.7627 713.2924
971 117.3258 740.7663
972 0.0000 750.0000
973 -117.3258 740.7663
974 -231.7627 713.2924
975 -340.4929 668.2549
976 -440.8389 606.7627
977 -530.3301 530.3301
978 -606.7627 440.8389
979 -668.2549 340.4929
980 -713.2924 231.7627
981 -740.7663 117.3258
982 -750.0000 0.0000
983 -740.7663 -117.3258
984 -713.2924 -231.7627
985 -668.2549 -340.4929
986 -606.7627 -440.8389
987 -530.3301 -530.3301
988 -440.8389 -606.7627
989 -340.4929 -668.2549
990 -231.7627 -713.2924
991 -117.3258 -740.7663
992 -0.0000 -750.0000
993 117.3258 -740.7663
994 231.7627 -713.2924
995 340.4929 -668.2549
996 440.8389 -606.7627
997 530.3301 -530.3301
998 606.7627 -440.8389
999 668.2549 -340.4929
1000 713.2924 -231.7627
1001 740.7663 -117.3258
1002 780.0000 0.0000
1003 770.3969 122.0189
1004 741.8241 241.0333
1005 694.9851 354.1126
1006 631.0333 458.4725
1007 551.5433 551.5433
1008 458.4725 631.0333
1009 354.1126 694.9851
1010 241.0333 741.8241
1011 122.0189 770.3969
1012 0.0000 780.0000
1013 -122.0189 770.3969
1014 -241.0333 741.8241
1015 -354.1126 694.9851
1016 -458.4725 631.0333
1017 -551.5433 551.5433
1018 -631.0333 458.4725
1019 -694.9851 354.1126
1020 -741.8241 241.0333
1021 -770.3969 122.0189
1022 -780.0000 0.0000
1023 -770.3969 -122.0189
1024 -741.8241 -241.0333
1025 -694.9851 -354.1126
1026 -631.0333 -458.4725
1027 -551.5433 -551.5433
1028 -458.4725 -631.0333
1029 -354.1126 -694.9851
1030 -241.0333 -741.8241
1031 -122.0189 -770.3969
1032 -0.0000 -780.0000
1033 122.0189 -770.3969
1034 241.0333 -741.8241
1035 354.1126 -694.9851
1036 458.4725 -631.0333
1037 551.5433 -551.5433
1038 631.0333 -458.4725
1039 694.9851 -354.1126
1040 741.8241 -241.0333
1041 770.3969 -122.0189
1042 810.0000 0.0000
1043 800.0276 126.7119
1044 770.3558 250.3038
1045 721.7153 367.7323
1046 655.3038 476.1061
1047 572.7565 572.7565
1048 476.1061 655.3038
1049 367.7323 721.7153
1050 250.3038 770.3558
1051 126.7119 800.0276
1052 0.0000 810.0000
1053 -126.7119 800.0276
1054 -250.3038 770.3558
1055 -367.7323 721.7153
1056 -476.1061 655.3038
1057 -572.7565 572.7565
1058 -655.3038 476.1061
1059 -721.7153 367.7323
1060 -770.3558 250.3038
1061 -800.0276 126.7119
1062 -810.0000 0.0000
1063 -800.0276 -126.7119
1064 -770.3558 -250.3038
1065 -721.7153 -367.7323
1066 -655.3038 -476.1061
1067 -572.7565 -572.7565
1068 -476.1061 -655.3038
1069 -367.7323 -721.7153
1070 -250.3038 -770.3558
1071 -126.7119 -800.0276
1072 -0.0000 -810.0000
1073 126.7119 -800.0276
1074 250.3038 -770.3558
1075 367.7323 -721.7153
1076 476.1061 -655.3038
1077 572.7565 -572.7565
1078 655.3038 -476.1061
1079 721.7153 -367.7323
1080 770.3558 -250.3038
1081 800.0276 -126.7119
1082 840.0000 0.0000
1083 829.6582 131.4050
1084 798.8875 259.5743
1085 748.4455 381.3520
1086 679.5743 493.7396
1087 593.9697 593.9697
1088 493.7396 679.5743
1089 381.3520 748.4455
1090 259.5743 798.8875
1091 131.4050 829.6582
1092 0.0000 840.0000
1093 -131.4050 829.6582
1094 -259.5743 798.8875
1095 -381.3520 748.4455
1096 -493.7396 679.5743
1097 -593.9697 593.9697
1098 -679.5743 493.7396
1099 -748.4455 381.3520
1100 -798.8875 259.5743
1101 -829.6582 131.4050
1102 -840.0000 0.0000
1103 -829.6582 -131.4050
1104 -798.8875 -259.5743
1105 -748.4455 -381.3520
1106 -679.5743 -493.7396
1107 -593.9697 -593.9697
1108 -493.7396 -679.5743
1109 -381.3520 -748.4455
1110 -259.5743 -798.8875
1111 -131.4050 -829.6582
1112 -0.0000 -840.0000
1113 131.4050 -829.6582
1114 259.5743 -798.8875
1115 381.3520 -748.4455
1116 493.7396 -679.5743
1117 593.9697 -593.9697
1118 679.5743 -493.7396
1119 748.4455 -381.3520
1120 798.8875 -259.5743
1121 829.6582 -131.4050
1122 870.0000 0.0000
1123 859.2889 136.0980
1124 827.4192 268.8448
1125 775.1757 394.9717
1126 703.8448 511.3732
1127 615.1829 615.1829
1128 511.3732 703.8448
1129 394.9717 775.1757
1130 268.8448 827.4192
1131 136.0980 859.2889
1132 0.0000 870.0000
1133 -136.0980 859.2889
1134 -268.8448 827.4192
1135 -394.9717 775.1757
1136 -511.3732 703.8448
1137 -615.1829 615.1829
1138 -703.8448 511.3732
1139 -775.1757 394.9717
1140 -827.4192 268.8448
1141 -859.2889 136.0980
1142 -870.0000 0.0000
1143 -859.2889 -136.0980
1144 -827.4192 -268.8448
1145 -775.1757 -394.9717
1146 -703.8448 -511.3732
1147 -615.1829 -615.1829
1148 -511.3732 -703.8448
1149 -394.9717 -775.1757
1150 -268.8448 -827.4192
1151 -136.0980 -859.2889
1152 -0.0000 -870.0000
1153 136.0980 -859.2889
1154 268.8448 -827.4192
1155 394.9717 -775.1757
1156 511.3732 -703.8448
1157 615.1829 -615.1829
1158 703.8448 -511.3732
1159 775.1757 -394.9717
1160 827.4192 -268.8448
1161 859.2889 -136.0980
1162 900.0000 0.0000
1163 888.9195 140.7910
1164 855.9509 278.1153
1165 801.9059 408.5914
1166 728.1153 529.0067
1167 636.3961 636.3961
1168 529.0067 728.1153
1169 408.5914 801.9059
1170 278.1153 855.9509
1171 140.7910 888.9195
1172 0.0000 900.0000
1173 -140.7910 888.9195
1174 -278.1153 855.9509
1175 -408.5914 801.9059
1176 -529.0067 728.1153
1177 -636.3961 636.3961
1178 -728.1153 529.0067
1179 -801.9059 408.5914
1180 -855.9509 278.1153
1181 -888.9195 140.7910
1182 -900.0000 0.0000
1183 -888.9195 -140.7910
1184 -855.9509 -278.1153
1185 -801.9059 -408.5914
1186 -728.1153 -529.0067
1187 -636.3961 -636.3961
1188 -529.0067 -728.1153
1189 -408.5914 -801.9059
1190 -278.1153 -855.9509
1191 -140.7910 -888.9195
1192 -0.0000 -900.0000
1193 140.7910 -888.9195
1194 278.1153 -855.9509
1195 408.5914 -801.9059
1196 529.0067 -728.1153
1197 636.3961 -636.3961
1198 728.1153 -529.0067
1199 801.9059 -408.5914
1200 855.9509 -278.1153
1201 888.9195 -140.7910
DEMAND&PROFITS_SECTION
1 0 0
2 10 8
3 30 17
4 30 39
5 10 7
6 10 14
7 30 30
8 30 44
9 10 9
10 10 11
11 30 32
12 30 45
13 10 5
14 10 12
15 30 32
16 30 31
17 10 9
18 10 13
19 30 19
20 30 32
21 10 5
22 10 6
23 30 30
24 30 20
25 10 8
26 10 11
27 30 20
28 30 22
29 10 13
30 10 8
31 30 20
32 30 36
33 10 12
34 10 14
35 30 32
36 30 37
37 10 13
38 10 9
39 30 17
40 30 29
41 10 8
42 10 9
43 30 42
44 30 29
45 10 12
46 10 13
47 30 40
48 30 25
49 10 9
50 10 11
51 30 35
52 30 32
53 10 7
54 10 11
55 30 21
56 30 20
57 10 15
58 10 12
59 30 31
60 30 37
61 10 13
62 10 14
63 30 28
64 30 42
65 10 9
66 10 11
67 30 44
68 30 39
69 10 14
70 10 15
71 30 25
72 30 28
73 10 14
74 10 15
75 30 19
76 30 43
77 10 12
78 10 6
79 30 23
80 30 27
81 10 13
82 10 10
83 30 43
84 30 35
85 10 7
86 10 9
87 30 42
88 30 40
89 10 6
90 10 14
91 30 23
92 30 36
93 10 7
94 10 6
95 30 21
96 30 37
97 10 12
98 10 7
99 30 31
100 30 24
101 10 8
102 10 12
103 30 38
104 30 43
105 10 12
106 10 10
107 30 41
108 30 17
109 10 15
110 10 12
111 30 26
112 30 42
113 10 14
114 10 10
115 30 32
116 30 22
117 10 9
118 10 15
119 30 31
120 30 43
121 10 7
122 10 11
123 30 18
124 30 41
125 10 13
126 10 15
127 30 28
128 30 16
129 10 15
130 10 8
131 30 22
132 30 36
133 10 11
134 10 9
135 30 18
136 30 43
137 10 5
138 10 6
139 30 22
140 30 26
141 10 8
142 10 12
143 30 32
144 30 37
145 10 13
146 10 11
147 30 44
148 30 21
149 10 9
150 10 13
151 30 28
152 30 19
153 10 10
154 10 12
155 30 25
156 30 18
157 10 9
158 10 7
159 30 27
160 30 31
161 10 7
162 10 10
163 30 30
164 30 41
165 10 6
166 10 11
167 30 19
168 30 23
169 10 8
170 10 6
171 30 31
172 30 24
173 10 14
174 10 14
175 30 27
176 30 42
177 10 7
178 10 8
179 30 41
180 30 23
181 10 8
182 10 5
183 30 17
184 30 38
185 10 9
186 10 13
187 30 44
188 30 36
189 10 8
190 10 12
191 30 38
192 30 24
193 10 7
194 10 9
195 30 34
196 30 40
197 10 7
198 10 12
199 30 18
200 30 39
201 10 13
202 10 15
203 30 38
204 30 28
205 10 11
206 10 12
207 30 31
208 30 30
209 10 12
210 10 12
211 30 31
212 30 28
213 10 7
214 10 7
215 30 28
216 30 19
217 10 14
218 10 14
219 30 25
220 30 38
221 10 5
222 10 14
223 30 17
224 30 43
225 10 9
226 10 6
227 30 40
228 30 44
229 10 7
230 10 15
231 30 31
232 30 40
233 10 7
234 10 10
235 30 30
236 30 25
237 10 12
238 10 9
239 30 16
240 30 41
241 10 5
242 10 8
243 30 42
244 30 34
245 10 10
246 10 15
247 30 37
248 30 28
249 10 6
250 10 6
251 30 15
252 30 39
253 10 12
254 10 13
255 30 19
256 30 43
257 10 13
258 10 7
259 30 43
260 30 16
261 10 14
262 10 14
263 30 32
264 30 25
265 10 15
266 10 14
267 30 31
268 30 34
269 10 10
270 10 11
271 30 21
272 30 40
273 10 14
274 10 8
275 30 21
276 30 28
277 10 9
278 10 9
279 30 21
280 30 40
281 10 8
282 10 13
283 30 42
284 30 42
285 10 6
286 10 8
287 30 44
288 30 21
289 10 10
290 10 12
291 30 18
292 30 18
293 10 14
294 10 15
295 30 24
296 30 39
297 10 13
298 10 13
299 30 25
300 30 39
301 10 12
302 10 6
303 30 30
304 30 19
305 10 8
306 10 10
307 30 37
308 30 32
309 10 10
310 10 6
311 30 45
312 30 19
313 10 10
314 10 11
315 30 43
316 30 31
317 10 10
318 10 12
319 30 23
320 30 20
321 10 9
322 10 9
323 30 29
324 30 27
325 10 8
326 10 13
327 30 17
328 30 35
329 10 14
330 10 9
331 30 25
332 30 40
333 10 9
334 10 13
335 30 18
336 30 43
337 10 12
338 10 10
339 30 28
340 30 18
341 10 11
342 10 9
343 30 30
344 30 19
345 10 8
346 10 9
347 30 36
348 30 15
349 10 9
350 10 8
351 30 20
352 30 42
353 10 6
354 10 11
355 30 29
356 30 33
357 10 5
358 10 12
359 30 31
360 30 29
361 10 12
362 10 9
363 30 32
364 30 42
365 10 14
366 10 6
367 30 33
368 30 44
369 10 13
370 10 8
371 30 44
372 30 28
373 10 9
374 10 9
375 30 20
376 30 22
377 10 12
378 10 12
379 30 44
380 30 30
381 10 13
382 10 8
383 30 32
384 30 37
385 10 7
386 10 13
387 30 32
388 30 41
389 10 9
390 10 7
391 30 28
392 30 35
393 10 12
394 10 9
395 30 17
396 30 42
397 10 13
398 10 15
399 30 43
400 30 24
401 10 15
402 10 10
403 30 38
404 30 26
405 10 7
406 10 12
407 30 34
408 30 20
409 10 9
410 10 5
411 30 42
412 30 43
413 10 6
414 10 11
415 30 42
416 30 21
417 10 9
418 10 7
419 30 15
420 30 20
421 10 13
422 10 7
423 30 28
424 30 22
425 10 5
426 10 15
427 30 27
428 30 33
429 10 13
430 10 10
431 30 24
432 30 32
433 10 9
434 10 9
435 30 17
436 30 42
437 10 14
438 10 9
439 30 41
440 30 31
441 10 12
442 10 7
443 30 25
444 30 38
445 10 5
446 10 9
447 30 41
448 30 23
449 10 8
450 10 5
451 30 32
452 30 43
453 10 8
454 10 15
455 30 21
456 30 35
457 10 11
458 10 7
459 30 35
460 30 38
461 10 10
462 10 9
463 30 33
464 30 24
465 10 6
466 10 13
467 30 45
468 30 45
469 10 10
470 10 13
471 30 35
472 30 18
473 10 9
474 10 13
475 30 31
476 30 20
477 10 8
478 10 13
479 30 23
480 30 30
481 10 6
482 10 14
483 30 44
484 30 43
485 10 14
486 10 13
487 30 36
488 30 27
489 10 6
490 10 7
491 30 43
492 30 27
493 10 15
494 10 11
495 30 18
496 30 44
497 10 10
498 10 6
499 30 31
500 30 37
501 10 12
502 10 14
503 30 32
504 30 34
505 10 8
506 10 7
507 30 18
508 30 41
509 10 12
510 10 14
511 30 22
512 30 15
513 10 7
514 10 6
515 30 30
516 30 16
517 10 10
518 10 14
519 30 29
520 30 45
521 10 7
522 10 12
523 30 18
524 30 41
525 10 11
526 10 13
527 30 42
528 30 25
529 10 9
530 10 11
531 30 36
532 30 23
533 10 8
534 10 9
535 30 36
536 30 35
537 10 8
538 10 10
539 30 25
540 30 30
541 10 9
542 10 5
543 30 17
544 30 33
545 10 15
546 10 10
547 30 23
548 30 38
549 10 10
550 10 11
551 30 44
552 30 35
553 10 7
554 10 10
555 30 40
556 30 39
557 10 9
558 10 11
559 30 35
560 30 24
561 10 11
562 10 12
563 30 22
564 30 39
565 10 10
566 10 7
567 30 21
568 30 21
569 10 14
570 10 14
571 30 16
572 30 26
573 10 8
574 10 6
575 30 33
576 30 20
577 10 14
578 10 8
579 30 16
580 30 31
581 10 15
582 10 9
583 30 25
584 30 26
585 10 13
586 10 11
587 30 31
588 30 33
589 10 10
590 10 12
591 30 22
592 30 22
593 10 7
594 10 14
595 30 31
596 30 40
597 10 5
598 10 12
599 30 38
600 30 22
601 10 11
602 10 13
603 30 37
604 30 17
605 10 7
606 10 6
607 30 34
608 30 45
609 10 9
610 10 13
611 30 39
612 30 28
613 10 9
614 10 13
615 30 26
616 30 33
617 10 14
618 10 6
619 30 36
620 30 23
621 10 7
622 10 8
623 30 44
624 30 16
625 10 11
626 10 15
627 30 41
628 30 29
629 10 14
630 10 15
631 30 38
632 30 32
633 10 12
634 10 11
635 30 25
636 30 20
637 10 11
638 10 15
639 30 43
640 30 28
641 10 13
642 10 15
643 30 24
644 30 30
645 10 9
646 10 13
647 30 34
648 30 34
649 10 6
650 10 11
651 30 25
652 30 41
653 10 13
654 10 14
655 30 15
656 30 15
657 10 11
658 10 11
659 30 22
660 30 30
661 10 13
662 10 7
663 30 20
664 30 30
665 10 15
666 10 14
667 30 26
668 30 17
669 10 7
670 10 9
671 30 34
672 30 30
673 10 14
674 10 10
675 30 25
676 30 37
677 10 9
678 10 6
679 30 21
680 30 43
681 10 7
682 10 9
683 30 40
684 30 42
685 10 8
686 10 12
687 30 26
688 30 20
689 10 13
690 10 6
691 30 18
692 30 21
693 10 10
694 10 13
695 30 38
696 30 34
697 10 9
698 10 5
699 30 30
700 30 22
701 10 12
702 10 13
703 30 43
704 30 26
705 10 12
706 10 5
707 30 22
708 30 24
709 10 14
710 10 10
711 30 22
712 30 25
713 10 10
714 10 10
715 30 16
716 30 20
717 10 6
718 10 12
719 30 15
720 30 39
721 10 12
722 10 8
723 30 36
724 30 31
725 10 5
726 10 9
727 30 30
728 30 26
729 10 10
730 10 6
731 30 32
732 30 38
733 10 12
734 10 7
735 30 37
736 30 25
737 10 5
738 10 6
739 30 20
740 30 32
741 10 8
742 10 8
743 30 33
744 30 39
745 10 9
746 10 8
747 30 31
748 30 25
749 10 14
750 10 6
751 30 35
752 30 40
753 10 6
754 10 11
755 30 17
756 30 39
757 10 6
758 10 11
759 30 43
760 30 17
761 10 7
762 10 5
763 30 42
764 30 39
765 10 14
766 10 8
767 30 34
768 30 30
769 10 7
770 10 12
771 30 22
772 30 34
773 10 13
774 10 10
775 30 19
776 30 24
777 10 13
778 10 9
779 30 38
780 30 33
781 10 6
782 10 14
783 30 38
784 30 26
785 10 8
786 10 15
787 30 45
788 30 18
789 10 11
790 10 5
791 30 42
792 30 29
793 10 10
794 10 7
795 30 41
796 30 25
797 10 11
798 10 12
799 30 38
800 30 24
801 10 15
802 10 13
803 30 26
804 30 41
805 10 9
806 10 9
807 30 45
808 30 19
809 10 10
810 10 14
811 30 16
812 30 21
813 10 10
814 10 12
815 30 38
816 30 41
817 10 10
818 10 12
819 30 36
820 30 35
821 10 8
822 10 7
823 30 38
824 30 32
825 10 8
826 10 13
827 30 39
828 30 26
829 10 6
830 10 8
831 30 40
832 30 24
833 10 11
834 10 8
835 30 42
836 30 37
837 10 9
838 10 9
839 30 38
840 30 35
841 10 10
842 10 15
843 30 34
844 30 28
845 10 14
846 10 7
847 30 33
848 30 41
849 10 11
850 10 15
851 30 41
852 30 21
853 10 12
854 10 8
855 30 42
856 30 25
857 10 5
858 10 12
859 30 41
860 30 20
861 10 14
862 10 14
863 30 33
864 30 26
865 10 11
866 10 12
867 30 44
868 30 17
869 10 13
870 10 12
871 30 15
872 30 32
873 10 9
874 10 12
875 30 38
876 30 26
877 10 14
878 10 10
879 30 16
880 30 30
881 10 11
882 10 6
883 30 32
884 30 16
885 10 14
886 10 7
887 30 44
888 30 19
889 10 11
890 10 6
891 30 36
892 30 24
893 10 12
894 10 9
895 30 26
896 30 34
897 10 6
898 10 9
899 30 28
900 30 21
901 10 7
902 10 7
903 30 42
904 30 23
905 10 11
906 10 13
907 30 18
908 30 44
909 10 5
910 10 14
911 30 32
912 30 31
913 10 6
914 10 11
915 30 35
916 30 44
917 10 10
918 10 10
919 30 35
920 30 22
921 10 13
922 10 15
923 30 22
924 30 27
925 10 8
926 10 13
927 30 24
928 30 44
929 10 9
930 10 12
931 30 20
932 30 28
933 10 6
934 10 11
935 30 20
936 30 26
937 10 11
938 10 10
939 30 36
940 30 26
941 10 12
942 10 11
943 30 35
944 30 27
945 10 11
946 10 11
947 30 30
948 30 18
949 10 11
950 10 10
951 30 29
952 30 26
953 10 10
954 10 12
955 30 21
956 30 36
957 10 8
958 10 9
959 30 42
960 30 45
961 10 14
962 10 12
963 30 18
964 30 43
965 10 14
966 10 14
967 30 22
968 30 22
969 10 10
970 10 11
971 30 34
972 30 26
973 10 14
974 10 6
975 30 40
976 30 33
977 10 6
978 10 13
979 30 24
980 30 44
981 10 11
982 10 9
983 30 17
984 30 19
985 10 7
986 10 9
987 30 33
988 30 21
989 10 9
990 10 12
991 30 33
992 30 42
993 10 13
994 10 5
995 30 38
996 30 25
997 10 12
998 10 14
999 30 25
1000 30 19
1001 10 12
1002 10 10
1003 30 19
1004 30 22
1005 10 8
1006 10 11
1007 30 41
1008 30 20
1009 10 5
1010 10 11
1011 30 20
1012 30 21
1013 10 10
1014 10 13
1015 30 25
1016 30 38
1017 10 14
1018 10 10
1019 30 24
1020 30 18
1021 10 9
1022 10 12
1023 30 33
1024 30 29
1025 10 14
1026 10 13
1027 30 26
1028 30 24
1029 10 12
1030 10 15
1031 30 23
1032 30 23
1033 10 15
1034 10 6
1035 30 15
1036 30 40
1037 10 13
1038 10 12
1039 30 18
1040 30 30
1041 10 7
1042 10 11
1043 30 33
1044 30 42
1045 10 10
1046 10 6
1047 30 37
1048 30 43
1049 10 13
1050 10 12
1051 30 26
1052 30 25
1053 10 14
1054 10 10
1055 30 35
1056 30 28
1057 10 10
1058 10 11
1059 30 42
1060 30 33
1061 10 8
1062 10 13
1063 30 27
1064 30 44
1065 10 14
1066 10 6
1067 30 24
1068 30 22
1069 10 12
1070 10 6
1071 30 40
1072 30 40
1073 10 15
1074 10 12
1075 30 26
1076 30 31
1077 10 11
1078 10 11
1079 30 35
1080 30 21
1081 10 6
1082 10 11
1083 30 41
1084 30 15
1085 10 11
1086 10 13
1087 30 23
1088 30 27
1089 10 13
1090 10 15
1091 30 37
1092 30 20
1093 10 5
1094 10 15
1095 30 31
1096 30 23
1097 10 10
1098 10 13
1099 30 42
1100 30 41
1101 10 9
1102 10 12
1103 30 25
1104 30 18
1105 10 9
1106 10 14
1107 30 36
1108 30 30
1109 10 10
1110 10 13
1111 30 34
1112 30 19
1113 10 7
1114 10 5
1115 30 44
1116 30 18
1117 10 13
1118 10 11
1119 30 31
1120 30 25
1121 10 15
1122 10 6
1123 30 42
1124 30 27
1125 10 13
1126 10 10
1127 30 44
1128 30 40
1129 10 11
1130 10 6
1131 30 37
1132 30 36
1133 10 7
1134 10 10
1135 30 30
1136 30 24
1137 10 7
1138 10 6
1139 30 28
1140 30 37
1141 10 8
1142 10 14
1143 30 16
1144 30 40
1145 10 8
1146 10 12
1147 30 34
1148 30 24
1149 10 8
1150 10 7
1151 30 35
1152 30 45
1153 10 15
1154 10 13
1155 30 39
1156 30 30
1157 10 7
1158 10 13
1159 30 22
1160 30 15
1161 10 11
1162 10 6
1163 30 33
1164 30 22
1165 10 13
1166 10 7
1167 30 23
1168 30 16
1169 10 10
1170 10 14
1171 30 36
1172 30 31
1173 10 6
1174 10 14
1175 30 36
1176 30 43
1177 10 8
1178 10 9
1179 30 36
1180 30 32
1181 10 7
1182 10 14
1183 30 20
1184 30 18
1185 10 15
1186 10 12
1187 30 18
1188 30 22
1189 10 11
1190 10 14
1191 30 21
1192 30 28
1193 10 12
1194 10 10
1195 30 25
1196 30 40
1197 10 13
1198 10 6
1199 30 28
1200 30 16
1201 10 6
DEPOT_SECTION
1
-1
EOF
